
Gurobi 6.0.0 (linux64) logging started Thu Apr  9 21:54:07 2015

Read LP format model from file factorqpmip.lp
Reading time = 0.00 seconds
(null): 12 rows, 20 columns, 52 nonzeros
Optimize a model with 12 rows, 20 columns and 52 nonzeros
Model has 16 quadratic objective terms
Coefficient statistics:
  Matrix range    [4e-03, 1e+00]
  Objective range [1e-01, 4e-01]
  Bounds range    [1e-01, 1e+05]
  RHS range       [0e+00, 0e+00]
Found heuristic solution: objective 0
Presolve removed 8 rows and 8 columns
Presolve time: 0.00s
Presolved: 4 rows, 12 columns, 36 nonzeros
Presolved model has 16 quadratic objective terms
Variable types: 12 continuous, 0 integer (0 binary)

Root relaxation: objective -5.675899e-01, 12 iterations, 0.00 seconds

    Nodes    |    Current Node    |     Objective Bounds      |     Work
 Expl Unexpl |  Obj  Depth IntInf | Incumbent    BestBd   Gap | It/Node Time

*    0     0               0      -0.5675899   -0.56759  0.00%     -    0s

Explored 0 nodes (12 simplex iterations) in 0.00 seconds
Thread count was 4 (of 4 available processors)

Optimal solution found (tolerance 1.00e-04)
Best objective -5.675899016262e-01, best bound -5.675899016262e-01, gap 0.0%

Gurobi 6.0.0 (linux64) logging started Thu Apr  9 22:12:45 2015

Read LP format model from file factorqpmip.lp
Reading time = 0.00 seconds
(null): 13 rows, 20 columns, 60 nonzeros
Optimize a model with 13 rows, 20 columns and 60 nonzeros
Model has 16 quadratic objective terms
Coefficient statistics:
  Matrix range    [4e-03, 1e+00]
  Objective range [1e-01, 4e-01]
  Bounds range    [1e-01, 1e+05]
  RHS range       [1e+00, 1e+00]
Found heuristic solution: objective -0.3889
Presolve removed 8 rows and 8 columns
Presolve time: 0.00s
Presolved: 5 rows, 12 columns, 40 nonzeros
Presolved model has 16 quadratic objective terms
Variable types: 12 continuous, 0 integer (0 binary)

Root relaxation: objective -3.897695e-01, 19 iterations, 0.00 seconds

    Nodes    |    Current Node    |     Objective Bounds      |     Work
 Expl Unexpl |  Obj  Depth IntInf | Incumbent    BestBd   Gap | It/Node Time

*    0     0               0      -0.3897695   -0.38977  0.00%     -    0s

Explored 0 nodes (19 simplex iterations) in 0.00 seconds
Thread count was 4 (of 4 available processors)

Optimal solution found (tolerance 1.00e-04)
Best objective -3.897694880804e-01, best bound -3.897694880804e-01, gap 0.0%

Gurobi 6.0.0 (linux64) logging started Thu Apr  9 22:19:12 2015

Read LP format model from file factorqpmip.lp
Reading time = 0.00 seconds
(null): 13 rows, 20 columns, 60 nonzeros
Optimize a model with 13 rows, 20 columns and 60 nonzeros
Model has 16 quadratic objective terms
Coefficient statistics:
  Matrix range    [4e-03, 1e+00]
  Objective range [1e-01, 4e-01]
  Bounds range    [1e-01, 1e+05]
  RHS range       [1e+00, 1e+00]
Found heuristic solution: objective -0.3889
Presolve removed 8 rows and 8 columns
Presolve time: 0.00s
Presolved: 5 rows, 12 columns, 40 nonzeros
Presolved model has 16 quadratic objective terms
Variable types: 12 continuous, 0 integer (0 binary)

Root relaxation: objective -3.897695e-01, 19 iterations, 0.00 seconds

    Nodes    |    Current Node    |     Objective Bounds      |     Work
 Expl Unexpl |  Obj  Depth IntInf | Incumbent    BestBd   Gap | It/Node Time

*    0     0               0      -0.3897695   -0.38977  0.00%     -    0s

Explored 0 nodes (19 simplex iterations) in 0.00 seconds
Thread count was 4 (of 4 available processors)

Optimal solution found (tolerance 1.00e-04)
Best objective -3.897694880804e-01, best bound -3.897694880804e-01, gap 0.0%

Gurobi 6.0.0 (linux64) logging started Thu Apr  9 22:20:46 2015

Read LP format model from file factorqpmip.lp
Reading time = 0.00 seconds
(null): 13 rows, 20 columns, 60 nonzeros
Optimize a model with 13 rows, 20 columns and 60 nonzeros
Model has 16 quadratic objective terms
Coefficient statistics:
  Matrix range    [4e-03, 1e+00]
  Objective range [1e-01, 4e-01]
  Bounds range    [1e-01, 1e+05]
  RHS range       [1e+00, 1e+00]
Found heuristic solution: objective -0.3889
Presolve removed 8 rows and 8 columns
Presolve time: 0.00s
Presolved: 5 rows, 12 columns, 40 nonzeros
Presolved model has 16 quadratic objective terms
Variable types: 12 continuous, 0 integer (0 binary)

Root relaxation: objective -3.897695e-01, 19 iterations, 0.00 seconds

    Nodes    |    Current Node    |     Objective Bounds      |     Work
 Expl Unexpl |  Obj  Depth IntInf | Incumbent    BestBd   Gap | It/Node Time

*    0     0               0      -0.3897695   -0.38977  0.00%     -    0s

Explored 0 nodes (19 simplex iterations) in 0.00 seconds
Thread count was 4 (of 4 available processors)

Optimal solution found (tolerance 1.00e-04)
Best objective -3.897694880804e-01, best bound -3.897694880804e-01, gap 0.0%

Gurobi 6.0.0 (linux64) logging started Thu Apr  9 22:21:03 2015

Read LP format model from file factorqpmip.lp
Reading time = 0.00 seconds
(null): 13 rows, 20 columns, 60 nonzeros
Optimize a model with 13 rows, 20 columns and 60 nonzeros
Model has 16 quadratic objective terms
Coefficient statistics:
  Matrix range    [4e-03, 1e+00]
  Objective range [1e-01, 4e-01]
  Bounds range    [1e-01, 1e+05]
  RHS range       [1e+00, 1e+00]
Found heuristic solution: objective -0.3889
Presolve removed 8 rows and 8 columns
Presolve time: 0.00s
Presolved: 5 rows, 12 columns, 40 nonzeros
Presolved model has 16 quadratic objective terms
Variable types: 12 continuous, 0 integer (0 binary)

Root relaxation: objective -3.897695e-01, 19 iterations, 0.00 seconds

    Nodes    |    Current Node    |     Objective Bounds      |     Work
 Expl Unexpl |  Obj  Depth IntInf | Incumbent    BestBd   Gap | It/Node Time

*    0     0               0      -0.3897695   -0.38977  0.00%     -    0s

Explored 0 nodes (19 simplex iterations) in 0.00 seconds
Thread count was 4 (of 4 available processors)

Optimal solution found (tolerance 1.00e-04)
Best objective -3.897694880804e-01, best bound -3.897694880804e-01, gap 0.0%

Gurobi 6.0.0 (linux64) logging started Thu Apr  9 22:23:04 2015

Read LP format model from file factorqpmip.lp
Reading time = 0.00 seconds
(null): 14 rows, 20 columns, 68 nonzeros
Optimize a model with 14 rows, 20 columns and 68 nonzeros
Model has 16 quadratic objective terms
Coefficient statistics:
  Matrix range    [4e-03, 1e+00]
  Objective range [1e-01, 4e-01]
  Bounds range    [1e-01, 1e+05]
  RHS range       [1e+00, 3e+00]
Found heuristic solution: objective -0.3889
Presolve time: 0.00s
Presolved: 14 rows, 20 columns, 64 nonzeros
Presolved model has 16 quadratic objective terms
Variable types: 12 continuous, 8 integer (8 binary)

Root relaxation: objective -3.897695e-01, 29 iterations, 0.00 seconds

    Nodes    |    Current Node    |     Objective Bounds      |     Work
 Expl Unexpl |  Obj  Depth IntInf | Incumbent    BestBd   Gap | It/Node Time

     0     0   -0.38977    0    2   -0.38890   -0.38977  0.22%     -    0s
     0     0   -0.38977    0    2   -0.38890   -0.38977  0.22%     -    0s
     0     0   -0.38928    0    3   -0.38890   -0.38928  0.10%     -    0s
*    0     0               0      -0.3890401   -0.38904  0.00%     -    0s

Cutting planes:
  Cover: 1

Explored 0 nodes (44 simplex iterations) in 0.00 seconds
Thread count was 4 (of 4 available processors)

Optimal solution found (tolerance 1.00e-04)
Best objective -3.890401348180e-01, best bound -3.890401348180e-01, gap 0.0%

Gurobi 6.0.0 (linux64) logging started Thu Apr  9 22:33:31 2015

Read LP format model from file factorqpmip.lp
Reading time = 0.00 seconds
(null): 20 rows, 20 columns, 80 nonzeros
Optimize a model with 20 rows, 20 columns and 80 nonzeros
Model has 16 quadratic objective terms
Coefficient statistics:
  Matrix range    [4e-03, 1e+00]
  Objective range [1e-01, 4e-01]
  Bounds range    [1e-01, 1e+05]
  RHS range       [1e+00, 3e+00]
Found heuristic solution: objective -0.3889
Presolve time: 0.00s
Presolved: 20 rows, 20 columns, 76 nonzeros
Presolved model has 16 quadratic objective terms
Variable types: 12 continuous, 8 integer (8 binary)

Root relaxation: objective -3.897695e-01, 28 iterations, 0.00 seconds

    Nodes    |    Current Node    |     Objective Bounds      |     Work
 Expl Unexpl |  Obj  Depth IntInf | Incumbent    BestBd   Gap | It/Node Time

     0     0   -0.38977    0    2   -0.38890   -0.38977  0.22%     -    0s
     0     0   -0.38977    0    2   -0.38890   -0.38977  0.22%     -    0s
     0     0     cutoff    0        -0.38890   -0.38890  0.00%     -    0s

Cutting planes:
  Cover: 1
  MIR: 2

Explored 0 nodes (36 simplex iterations) in 0.00 seconds
Thread count was 4 (of 4 available processors)

Optimal solution found (tolerance 1.00e-04)
Best objective -3.888995295924e-01, best bound -3.888995295924e-01, gap 0.0%

Gurobi 6.0.0 (linux64) logging started Fri Apr 10 07:58:00 2015

Read LP format model from file factorqpmip.lp
Reading time = 0.01 seconds
(null): 521 rows, 1019 columns, 6017 nonzeros
Optimize a model with 521 rows, 1019 columns and 6017 nonzeros
Model has 621 quadratic objective terms
Coefficient statistics:
  Matrix range    [1e-03, 5e+00]
  Objective range [2e-01, 9e+01]
  Bounds range    [1e-01, 1e+05]
  RHS range       [1e+00, 1e+02]
Found heuristic solution: objective -34.9736
Presolve removed 2 rows and 3 columns
Presolve time: 0.03s

Explored 0 nodes (0 simplex iterations) in 0.03 seconds
Thread count was 1 (of 4 available processors)

Best objective -3.497357491677e+01, best bound -, gap -

Gurobi 6.0.0 (linux64) logging started Fri Apr 10 16:33:35 2015

Read LP format model from file factorqpmip.lp
Reading time = 0.00 seconds
(null): 13 rows, 20 columns, 60 nonzeros
Optimize a model with 13 rows, 20 columns and 60 nonzeros
Model has 16 quadratic objective terms
Coefficient statistics:
  Matrix range    [4e-03, 1e+00]
  Objective range [1e-01, 4e-01]
  Bounds range    [1e-01, 1e+05]
  RHS range       [1e+00, 1e+00]
Found heuristic solution: objective -0.3889
Presolve removed 8 rows and 8 columns
Presolve time: 0.00s
Presolved: 5 rows, 12 columns, 40 nonzeros
Presolved model has 16 quadratic objective terms
Variable types: 12 continuous, 0 integer (0 binary)

Root relaxation: objective -3.897695e-01, 19 iterations, 0.00 seconds

    Nodes    |    Current Node    |     Objective Bounds      |     Work
 Expl Unexpl |  Obj  Depth IntInf | Incumbent    BestBd   Gap | It/Node Time

*    0     0               0      -0.3897695   -0.38977  0.00%     -    0s

Explored 0 nodes (19 simplex iterations) in 0.00 seconds
Thread count was 4 (of 4 available processors)

Optimal solution found (tolerance 1.00e-04)
Best objective -3.897694880804e-01, best bound -3.897694880804e-01, gap 0.0%

Gurobi 6.0.0 (linux64) logging started Mon Apr 13 23:23:01 2015


Gurobi Optimizer version 6.0.0 build v6.0.0rc2 (linux64)
Copyright (c) 2014, Gurobi Optimization, Inc.

Read LP format model from file factorqpmip.lp
Reading time = 0.01 seconds
(null): 521 rows, 1019 columns, 6019 nonzeros
Optimize a model with 521 rows, 1019 columns and 6019 nonzeros
Model has 605 quadratic objective terms
Coefficient statistics:
  Matrix range    [1e-03, 5e+00]
  Objective range [2e-02, 9e+00]
  Bounds range    [1e-01, 1e+05]
  RHS range       [1e+00, 1e+02]
Found heuristic solution: objective 0.439723
Presolve removed 1 rows and 1 columns
Presolve time: 0.03s
Presolved: 520 rows, 1018 columns, 6010 nonzeros
Presolved model has 593 quadratic objective terms
Variable types: 518 continuous, 500 integer (500 binary)

Root relaxation: objective -4.616864e+00, 2504 iterations, 0.19 seconds

    Nodes    |    Current Node    |     Objective Bounds      |     Work
 Expl Unexpl |  Obj  Depth IntInf | Incumbent    BestBd   Gap | It/Node Time

     0     0   -4.61686    0  156    0.43972   -4.61686  1150%     -    0s
H    0     0                      -3.3067395   -4.61686  39.6%     -    0s
H    0     0                      -3.5967145   -4.61686  28.4%     -    0s
H    0     0                      -4.4479804   -4.61686  3.80%     -    0s
H    0     0                      -4.4961929   -4.61686  2.68%     -    0s
H    0     0                      -4.5995504   -4.61686  0.38%     -    1s
     0     2   -4.61686    0  152   -4.59955   -4.61686  0.38%     -    1s

Explored 174 nodes (3093 simplex iterations) in 1.15 seconds
Thread count was 4 (of 4 available processors)

Solve interrupted
Best objective -4.599550443623e+00, best bound -4.616864031274e+00, gap 0.3764%

Gurobi 6.0.0 (linux64) logging started Tue Apr 14 12:24:27 2015

Read LP format model from file factorqpmip.lp
Reading time = 0.01 seconds
(null): 521 rows, 1019 columns, 6019 nonzeros
Optimize a model with 521 rows, 1019 columns and 6019 nonzeros
Model has 605 quadratic objective terms
Coefficient statistics:
  Matrix range    [1e-03, 5e+00]
  Objective range [2e-02, 9e+00]
  Bounds range    [1e-01, 1e+05]
  RHS range       [1e+00, 1e+02]
Found heuristic solution: objective 0.439723
Presolve removed 1 rows and 1 columns
Presolve time: 0.03s
Presolved: 520 rows, 1018 columns, 6010 nonzeros
Presolved model has 593 quadratic objective terms
Variable types: 518 continuous, 500 integer (500 binary)

Root relaxation: objective -4.616864e+00, 2504 iterations, 0.19 seconds

    Nodes    |    Current Node    |     Objective Bounds      |     Work
 Expl Unexpl |  Obj  Depth IntInf | Incumbent    BestBd   Gap | It/Node Time

     0     0   -4.61686    0  156    0.43972   -4.61686  1150%     -    0s
H    0     0                      -3.3067395   -4.61686  39.6%     -    0s
H    0     0                      -3.5967145   -4.61686  28.4%     -    0s
H    0     0                      -4.4479804   -4.61686  3.80%     -    0s
H    0     0                      -4.4961929   -4.61686  2.68%     -    0s
H    0     0                      -4.5995504   -4.61686  0.38%     -    1s
     0     2   -4.61686    0  152   -4.59955   -4.61686  0.38%     -    1s
H  314   304                      -4.6015605   -4.61686  0.33%   3.2    1s
H  362   195                      -4.6054402   -4.61656  0.24%   3.3    1s
H  363   144                      -4.6058235   -4.61656  0.23%   3.3    1s
*  475   189              98      -4.6059526   -4.61656  0.23%   4.4    1s
H  937   425                      -4.6065316   -4.61656  0.22%   5.9    1s
H 1016   450                      -4.6067626   -4.61655  0.21%   6.1    1s
H 1256   546                      -4.6068524   -4.61655  0.21%   8.0    3s
H 2005   748                      -4.6070503   -4.61655  0.21%   7.8    4s
  2946  1237   -4.61619  103   64   -4.60705   -4.61655  0.21%   7.6    5s

Explored 3193 nodes (26248 simplex iterations) in 5.18 seconds
Thread count was 4 (of 4 available processors)

Solve interrupted
Best objective -4.607050254863e+00, best bound -4.616554094097e+00, gap 0.2063%
